1624308
64 67 14572
67 38 15200
38 21 42598
21 3 17216
3 61 12947
61 24 5437
24 42 14670
42 29 15312
29 25 9940
25 30 1249
30 41 5056
41 6 10602
6 60 15832
60 23 7498
23 49 4353
49 19 8895
19 5 15574
5 40 3130
40 56 3489
56 32 1427
32 12 4813
12 1 10465
1 54 18207
54 13 13536
13 47 9114
47 4 12782
4 20 4440
20 65 13332
65 45 16726
45 68 50028
68 35 19070
35 51 8926
51 39 11004
39 62 8740
62 37 30446
37 53 6554
53 8 47235
8 15 6874
15 58 6904
58 9 1777
9 17 5356
17 27 1445
27 2 15575
2 48 7938
48 63 23516
63 16 14689
16 59 10880
59 36 8563
36 28 23031
28 50 10810
50 44 70964
44 10 75759
10 18 28652
18 57 27906
57 33 88918
33 52 101509
52 14 39276
14 31 70585
31 22 39447
22 43 102153
43 7 52950
7 34 42208
34 46 36286
46 55 30985
55 26 61621
26 66 57991
66 11 13370
11 64 35955
